p cnf 12 31
-2 7 -1 0
-12 10 -9 -5 1 6 -4 -11 -8 -3 -2 -7 0
-7 8 3 2 -1 -12 -5 4 10 11 -9 6 0
2 9 -7 0
-2 -1 0
-9 1 -10 0
-1 3 -7 -9 0
-1 -2 0
-7 11 0
-8 -1 0
9 -1 3 4 0
-5 11 -7 0
10 9 11 2 0
10 8 0
-8 7 0
4 -7 6 0
3 -2 -10 0
4 -8 -3 0
1 9 -4 3 0
3 12 -4 -1 -6 -5 9 11 0
-6 -12 -9 -3 -10 4 -8 5 11 -2 0
-12 -3 -6 -8 -2 -7 0
-11 1 -5 -9 12 -6 -8 3 4 0
-8 -6 -11 -7 0
11 12 0
-11 -12 -8 -2 10 6 0
4 -6 -10 0
8 11 4 -3 0
-6 1 0
4 -11 -10 -7 12 -2 5 -6 -8 0
-5 4 0
